
Gurobi 7.5.1 (linux64, Python) logging started Sun Apr  5 11:12:21 2020


Gurobi 7.5.1 (linux64, Python) logging started Sun Apr  5 11:31:48 2020


Gurobi 7.5.1 (linux64, Python) logging started Sun Apr  5 11:34:03 2020


Gurobi 7.5.1 (linux64, Python) logging started Sun Apr  5 11:42:54 2020

